data;
set WEIGHTS := x0 x1 x2 x3 x4 x5 x6 x7 x8 x9 x10 x11 x12 x13 x14 x15 x16 x17;
param:  cost :=
  x0  245249
  x1  228838
  x2  586370
  x3  504271
  x4  977567
  x5  983619
  x6  594195
  x7  532603
  x8  29385
  x9  734059
  x10  919088
  x11  913665
  x12  513848
  x13  488218
  x14  780791
  x15  278233
  x16  757367
  x17  557739;
param cap := 4500000;